c File: instances/22_0.10_3.col
c
c Description: Random graph of size 22 vertices and P(0.1) of edges between any two vertices.
p col 22 231
e 1 7
e 1 11
e 1 18
e 2 19
e 3 5
e 3 11
e 3 17
e 4 12
e 4 16
e 4 22
e 5 9
e 5 22
e 6 9
e 6 13
e 6 16
e 7 9
e 7 11
e 8 12
e 8 13
e 10 13
e 10 15
e 10 16
e 12 20
e 12 22
e 14 15
e 14 17
e 14 22
e 17 19
e 18 21
e 21 22